\ This file has been generated by DOcplex
\ ENCODING=ISO-8859-1
\Problem name: masterprob

Minimize
 obj: x_5_0 + x_5_1 + x_5_2 + x_6_0 + x_6_1 + x_6_2 + x_7_0 + x_7_1 + x_7_2
      + x_9_0 + x_9_1 + x_9_2 + x_12_0 + x_12_1 + x_12_2 + x_13_0 + x_13_1
      + x_13_2 + x_15_0 + x_15_1 + x_15_2 + x_18_0 + x_18_1 + x_18_2 + x_19_0
      + x_19_1 + x_19_2 + 500 y
Subject To
 c1: x_9_1 + x_15_1 + x_18_1 + y = 1
 c2: x_5_0 + x_5_1 + x_5_2 + x_6_1 + y = 1
 c3: x_5_1 + x_6_0 + x_6_1 + y = 1
 c4: x_7_0 + y = 1
 c5: x_9_0 + x_9_1 + x_9_2 + y = 1
 c6: x_12_0 + y = 1
 c7: x_5_2 + x_13_0 + y = 1
 c8: x_9_2 + x_15_0 + x_15_1 + x_18_2 + y = 1
 c9: x_18_0 + x_18_1 + x_18_2 + y = 1
 c10: x_5_0 + x_5_1 + x_5_2 <= 1
 c11: x_6_0 + x_6_1 <= 1
 c12: x_7_0 <= 1
 c13: x_9_0 + x_9_1 + x_9_2 <= 1
 c14: x_12_0 <= 1
 c15: x_13_0 <= 1
 c16: x_15_0 + x_15_1 <= 1
 c17: x_18_0 + x_18_1 + x_18_2 <= 1
 c18: <= 1

Bounds
 0 <= x_5_0 <= 1
 0 <= x_5_1 <= 1
 0 <= x_5_2 <= 1
 0 <= x_6_0 <= 1
 0 <= x_6_1 <= 1
 0 <= x_6_2 <= 1
 0 <= x_7_0 <= 1
 0 <= x_7_1 <= 1
 0 <= x_7_2 <= 1
 0 <= x_9_0 <= 1
 0 <= x_9_1 <= 1
 0 <= x_9_2 <= 1
 0 <= x_12_0 <= 1
 0 <= x_12_1 <= 1
 0 <= x_12_2 <= 1
 0 <= x_13_0 <= 1
 0 <= x_13_1 <= 1
 0 <= x_13_2 <= 1
 0 <= x_15_0 <= 1
 0 <= x_15_1 <= 1
 0 <= x_15_2 <= 1
 0 <= x_18_0 <= 1
 0 <= x_18_1 <= 1
 0 <= x_18_2 <= 1
 0 <= x_19_0 <= 1
 0 <= x_19_1 <= 1
 0 <= x_19_2 <= 1
 0 <= y <= 1

Binaries
 x_5_0 x_5_1 x_5_2 x_6_0 x_6_1 x_6_2 x_7_0 x_7_1 x_7_2 x_9_0 x_9_1 x_9_2 x_12_0
 x_12_1 x_12_2 x_13_0 x_13_1 x_13_2 x_15_0 x_15_1 x_15_2 x_18_0 x_18_1 x_18_2
 x_19_0 x_19_1 x_19_2 y
End
